20	5
0	9	1	6	5	4	7	12	8	2	3
1	5	20	10	18	9	15
2	5	11	20	13	14	18
3	5	16	15	17	20	18
4	3	14	11	20
5	3	15	10	20
6	5	14	13	20	18	11
7	2	18	11
8	5	11	14	20	15	18
9	1	14
10	1	21
11	3	10	16	17
12	4	20	15	13	9
13	3	17	10	16
14	3	19	17	16
15	1	21
16	1	21
17	1	21
18	1	21
19	2	21	10
20	1	21
21	0
0	0	0	0	0	0	0
1	8	4	2	5	3	2
2	10	2	4	2	4	5
3	3	3	1	4	1	4
4	10	2	4	4	4	1
5	5	4	4	3	5	3
6	2	5	5	1	4	5
7	4	3	1	1	2	1
8	7	2	2	3	5	5
9	1	4	5	4	4	1
10	4	4	4	5	3	5
11	5	4	4	4	5	1
12	4	4	4	4	5	4
13	4	4	5	2	3	2
14	6	3	2	4	5	5
15	10	5	1	5	5	3
16	10	3	1	4	4	3
17	8	2	2	2	3	4
18	10	4	2	2	5	1
19	5	2	4	1	3	5
20	8	1	1	4	4	5
21	0	0	0	0	0	0
17	16	16	19	18
